data/processed_heuristic-threshold/instances/1/8/ds_614_courier_487/pairwise.tsp
NAME: ds_614_courier_487
TYPE: TSP
COMMENT: nil
DIMENSION: 9
EDGE_WEIGHT_TYPE: EXPLICIT
EDGE_WEIGHT_FORMAT: FULL_MATRIX
EDGE_WEIGHT_SECTION
9999 3612 3005 2489 3686 3455 3766 2787 2692 
3612 9999 610 1131 5487 5063 484 2592 3413 
3005 610 9999 547 5007 4592 837 2198 2965 
2489 1131 547 9999 4796 4400 1379 2170 2834 
3686 5487 5007 4796 9999 439 5287 2947 2089 
3455 5063 4592 4400 439 9999 4855 2512 1656 
3766 484 837 1379 5287 4855 9999 2347 3199 
2787 2592 2198 2170 2947 2512 2347 9999 864 
2692 3413 2965 2834 2089 1656 3199 864 9999 
