data/processed_heuristic-threshold/instances/1/8/ds_614_courier_487/pairwise.sol
9
0 3 2 1 6 7 8 5 4 
